FEATURES = {liveStreaming,transactionFee,hdLiveVideoWithRecording,multiSessionEvents,rtmpSudio,presentOnManyScreens,emailSupport,chatSupport,patreonIntegration,stripeIntegration,eventAnalytics,sessionAnalytics,zapierIntegration,convertKitIntegration,dripIntegration,exportEmailAddresses,exportChat,exportData,multistreaming,customRegistrationFields};
USAGE_LIMITS = {liveAttendeesLimit,liveHoursPerMonthLimit,sessionsLimit,multistreamLocationsLimit,screensLimit};
PLANS = {STARTER,LITE,PRO,BUSINESS};
ADDONS = {};

plans_prices = [29.0,49.0,89.0,199.0];
addons_prices = [];

plans_features = array2d(PLANS, FEATURES, [
    % STARTER
    1,1,1,1,1,1,1,1,1,1,0,0,0,0,0,0,0,0,0,0,
    % LITE
    1,1,1,1,1,1,1,1,1,1,0,0,1,1,1,1,1,1,0,0,
    % PRO
    1,1,1,1,1,1,1,1,1,1,0,0,1,1,1,1,1,1,1,1,
    % BUSINESS
    1,1,1,1,1,1,1,1,1,1,0,0,1,1,1,1,1,1,1,1
]);
plans_usage_limits = array2d(PLANS, USAGE_LIMITS, [
    % STARTER
    50,5,2,1,4,
    % LITE
    100,10,2,1,4,
    % PRO
    250,20,2,1,6,
    % BUSINESS
    1000,40,6,3,6
]);

linked_features = array2d(USAGE_LIMITS, FEATURES, [
    % liveAttendeesLimit
    1,0,0,0,0,0,0,0,0,0,0,0,0,0,0,0,0,0,0,0,
    % liveHoursPerMonthLimit
    1,0,0,0,0,0,0,0,0,0,0,0,0,0,0,0,0,0,0,0,
    % sessionsLimit
    1,0,0,0,0,0,0,0,0,0,0,0,0,0,0,0,0,0,0,0,
    % multistreamLocationsLimit
    0,0,0,0,0,0,0,0,0,0,0,0,0,0,0,0,0,0,1,0,
    % screensLimit
    1,0,0,0,0,1,0,0,0,0,0,0,0,0,0,0,0,0,0,0
]);

addons_features = array2d(ADDONS, FEATURES, [
]);
addons_usage_limits = array2d(ADDONS, USAGE_LIMITS, [
]);
addons_usage_limits_extensions = array2d(ADDONS, USAGE_LIMITS, [
]);
addons_available_for = array2d(ADDONS, PLANS, [
]);

addons_depends_on = array2d(ADDONS, ADDONS, [
]);